words_hard_train/4068.qaiger
aag 93 15 0 1 78
2
4
8
12
16
20
24
28
36
40
44
46
68
78
88
187
6 3 5
10 6 9
14 10 13
18 14 17
22 18 21
26 22 25
30 26 29
32 27 28
34 31 33
38 36 13
42 40 9
48 44 46
50 49 4
52 45 47
54 51 53
56 43 55
58 41 8
60 57 59
62 39 61
64 37 12
66 63 65
70 69 16
72 66 71
74 68 17
76 73 75
80 78 21
82 76 81
84 79 20
86 83 85
90 89 24
92 88 25
94 91 93
96 86 94
98 97 93
100 35 99
102 34 98
104 101 103
106 18 79
108 19 78
110 107 109
112 111 76
114 6 40
116 7 41
118 115 117
120 119 54
122 118 55
124 121 123
126 45 3
128 44 2
130 127 129
132 130 47
134 124 132
136 110 77
138 134 137
140 113 138
142 10 37
144 11 36
146 143 145
148 147 61
150 146 60
152 149 151
154 14 69
156 15 68
158 155 157
160 159 66
162 158 67
164 161 163
166 152 165
168 140 166
170 87 95
172 171 97
174 23 24
176 175 27
178 172 177
180 168 179
182 173 176
184 180 183
186 105 184
i0 2 y1[0]
i1 2 y1[1]
i2 2 y1[2]
i3 2 y1[3]
i4 2 y1[4]
i5 2 y1[5]
i6 2 y1[6]
i7 1 x1[7]
i8 1 x1[3]
i9 1 x1[2]
i10 1 x1[0]
i11 1 x1[1]
i12 1 x1[4]
i13 1 x1[5]
i14 1 x1[6]
o0 bool[0]
c
simplified
  !=
    unary minus
      2 y1
    subtract
      1 x1
      or
        2 y1
        1
