words_hard_train/4068.qaiger.qdimacs
p cnf 93 235
a 34 39 44 14 18 20 22 23 0
e 1 2 3 4 5 6 7 8 9 10 11 12 13 15 16 17 19 21 24 25 26 27 28 29 30 31 32 33 35 36 37 38 40 41 42 43 45 46 47 48 49 50 51 52 53 54 55 56 57 58 59 60 61 62 63 64 65 66 67 68 69 70 71 72 73 74 75 76 77 78 79 80 81 82 83 84 85 86 87 88 89 90 91 92 93 0
1 2 3 0
-1 -3 0
-2 -3 0
-3 4 5 0
3 -5 0
-4 -5 0
-5 6 7 0
5 -7 0
-6 -7 0
-7 8 9 0
7 -9 0
-8 -9 0
-9 10 11 0
9 -11 0
-10 -11 0
-11 12 13 0
11 -13 0
-12 -13 0
-13 14 15 0
13 -15 0
-14 -15 0
13 -14 16 0
-13 -16 0
14 -16 0
15 16 17 0
-15 -17 0
-16 -17 0
-18 6 19 0
18 -19 0
-6 -19 0
-20 4 21 0
20 -21 0
-4 -21 0
-22 -23 24 0
22 -24 0
23 -24 0
24 -2 25 0
-24 -25 0
2 -25 0
22 23 26 0
-22 -26 0
-23 -26 0
25 26 27 0
-25 -27 0
-26 -27 0
21 27 28 0
-21 -28 0
-27 -28 0
20 -4 29 0
-20 -29 0
4 -29 0
28 29 30 0
-28 -30 0
-29 -30 0
19 30 31 0
-19 -31 0
-30 -31 0
18 -6 32 0
-18 -32 0
6 -32 0
31 32 33 0
-31 -33 0
-32 -33 0
34 -8 35 0
-34 -35 0
8 -35 0
-33 35 36 0
33 -36 0
-35 -36 0
-34 8 37 0
34 -37 0
-8 -37 0
36 37 38 0
-36 -38 0
-37 -38 0
-39 10 40 0
39 -40 0
-10 -40 0
-38 40 41 0
38 -41 0
-40 -41 0
39 -10 42 0
-39 -42 0
10 -42 0
41 42 43 0
-41 -43 0
-42 -43 0
44 -12 45 0
-44 -45 0
12 -45 0
-44 12 46 0
44 -46 0
-12 -46 0
45 46 47 0
-45 -47 0
-46 -47 0
-43 -47 48 0
43 -48 0
47 -48 0
48 46 49 0
-48 -49 0
-46 -49 0
17 49 50 0
-17 -50 0
-49 -50 0
-17 -49 51 0
17 -51 0
49 -51 0
50 51 52 0
-50 -52 0
-51 -52 0
-9 39 53 0
9 -53 0
-39 -53 0
9 -39 54 0
-9 -54 0
39 -54 0
53 54 55 0
-53 -55 0
-54 -55 0
55 -38 56 0
-55 -56 0
38 -56 0
-3 -20 57 0
3 -57 0
20 -57 0
3 20 58 0
-3 -58 0
-20 -58 0
57 58 59 0
-57 -59 0
-58 -59 0
59 -27 60 0
-59 -60 0
27 -60 0
-59 27 61 0
59 -61 0
-27 -61 0
60 61 62 0
-60 -62 0
-61 -62 0
22 1 63 0
-22 -63 0
-1 -63 0
-22 -1 64 0
22 -64 0
1 -64 0
63 64 65 0
-63 -65 0
-64 -65 0
-65 23 66 0
65 -66 0
-23 -66 0
-62 -66 67 0
62 -67 0
66 -67 0
-55 38 68 0
55 -68 0
-38 -68 0
-67 68 69 0
67 -69 0
-68 -69 0
56 -69 70 0
-56 -70 0
69 -70 0
-5 18 71 0
5 -71 0
-18 -71 0
5 -18 72 0
-5 -72 0
18 -72 0
71 72 73 0
-71 -73 0
-72 -73 0
73 30 74 0
-73 -74 0
-30 -74 0
-73 -30 75 0
73 -75 0
30 -75 0
74 75 76 0
-74 -76 0
-75 -76 0
-7 34 77 0
7 -77 0
-34 -77 0
7 -34 78 0
-7 -78 0
34 -78 0
77 78 79 0
-77 -79 0
-78 -79 0
79 -33 80 0
-79 -80 0
33 -80 0
-79 33 81 0
79 -81 0
-33 -81 0
80 81 82 0
-80 -82 0
-81 -82 0
-76 82 83 0
76 -83 0
-82 -83 0
-70 -83 84 0
70 -84 0
83 -84 0
43 47 85 0
-43 -85 0
-47 -85 0
85 48 86 0
-85 -86 0
-48 -86 0
11 -12 87 0
-11 -87 0
12 -87 0
87 13 88 0
-87 -88 0
-13 -88 0
-86 88 89 0
86 -89 0
-88 -89 0
-84 89 90 0
84 -90 0
-89 -90 0
86 -88 91 0
-86 -91 0
88 -91 0
-90 91 92 0
90 -92 0
-91 -92 0
52 -92 93 0
-52 -93 0
92 -93 0
-93 0
